p cnf 380 640
39 40 1 61 62 0
39 40 1 61 -62 0
39 40 1 -61 62 0
39 40 1 -61 -62 0
-39 -40 1 63 64 0
-39 -40 1 63 -64 0
-39 -40 1 -63 64 0
-39 -40 1 -63 -64 0
39 -40 -1 65 66 0
39 -40 -1 65 -66 0
39 -40 -1 -65 66 0
39 -40 -1 -65 -66 0
-39 40 -1 67 68 0
-39 40 -1 67 -68 0
-39 40 -1 -67 68 0
-39 40 -1 -67 -68 0
1 41 2 69 70 0
1 41 2 69 -70 0
1 41 2 -69 70 0
1 41 2 -69 -70 0
-1 -41 2 71 72 0
-1 -41 2 71 -72 0
-1 -41 2 -71 72 0
-1 -41 2 -71 -72 0
1 -41 -2 73 74 0
1 -41 -2 73 -74 0
1 -41 -2 -73 74 0
1 -41 -2 -73 -74 0
-1 41 -2 75 76 0
-1 41 -2 75 -76 0
-1 41 -2 -75 76 0
-1 41 -2 -75 -76 0
2 42 3 77 78 0
2 42 3 77 -78 0
2 42 3 -77 78 0
2 42 3 -77 -78 0
-2 -42 3 79 80 0
-2 -42 3 79 -80 0
-2 -42 3 -79 80 0
-2 -42 3 -79 -80 0
2 -42 -3 81 82 0
2 -42 -3 81 -82 0
2 -42 -3 -81 82 0
2 -42 -3 -81 -82 0
-2 42 -3 83 84 0
-2 42 -3 83 -84 0
-2 42 -3 -83 84 0
-2 42 -3 -83 -84 0
3 43 4 85 86 0
3 43 4 85 -86 0
3 43 4 -85 86 0
3 43 4 -85 -86 0
-3 -43 4 87 88 0
-3 -43 4 87 -88 0
-3 -43 4 -87 88 0
-3 -43 4 -87 -88 0
3 -43 -4 89 90 0
3 -43 -4 89 -90 0
3 -43 -4 -89 90 0
3 -43 -4 -89 -90 0
-3 43 -4 91 92 0
-3 43 -4 91 -92 0
-3 43 -4 -91 92 0
-3 43 -4 -91 -92 0
4 44 5 93 94 0
4 44 5 93 -94 0
4 44 5 -93 94 0
4 44 5 -93 -94 0
-4 -44 5 95 96 0
-4 -44 5 95 -96 0
-4 -44 5 -95 96 0
-4 -44 5 -95 -96 0
4 -44 -5 97 98 0
4 -44 -5 97 -98 0
4 -44 -5 -97 98 0
4 -44 -5 -97 -98 0
-4 44 -5 99 100 0
-4 44 -5 99 -100 0
-4 44 -5 -99 100 0
-4 44 -5 -99 -100 0
5 45 6 101 102 0
5 45 6 101 -102 0
5 45 6 -101 102 0
5 45 6 -101 -102 0
-5 -45 6 103 104 0
-5 -45 6 103 -104 0
-5 -45 6 -103 104 0
-5 -45 6 -103 -104 0
5 -45 -6 105 106 0
5 -45 -6 105 -106 0
5 -45 -6 -105 106 0
5 -45 -6 -105 -106 0
-5 45 -6 107 108 0
-5 45 -6 107 -108 0
-5 45 -6 -107 108 0
-5 45 -6 -107 -108 0
6 46 7 109 110 0
6 46 7 109 -110 0
6 46 7 -109 110 0
6 46 7 -109 -110 0
-6 -46 7 111 112 0
-6 -46 7 111 -112 0
-6 -46 7 -111 112 0
-6 -46 7 -111 -112 0
6 -46 -7 113 114 0
6 -46 -7 113 -114 0
6 -46 -7 -113 114 0
6 -46 -7 -113 -114 0
-6 46 -7 115 116 0
-6 46 -7 115 -116 0
-6 46 -7 -115 116 0
-6 46 -7 -115 -116 0
7 47 8 117 118 0
7 47 8 117 -118 0
7 47 8 -117 118 0
7 47 8 -117 -118 0
-7 -47 8 119 120 0
-7 -47 8 119 -120 0
-7 -47 8 -119 120 0
-7 -47 8 -119 -120 0
7 -47 -8 121 122 0
7 -47 -8 121 -122 0
7 -47 -8 -121 122 0
7 -47 -8 -121 -122 0
-7 47 -8 123 124 0
-7 47 -8 123 -124 0
-7 47 -8 -123 124 0
-7 47 -8 -123 -124 0
8 48 9 125 126 0
8 48 9 125 -126 0
8 48 9 -125 126 0
8 48 9 -125 -126 0
-8 -48 9 127 128 0
-8 -48 9 127 -128 0
-8 -48 9 -127 128 0
-8 -48 9 -127 -128 0
8 -48 -9 129 130 0
8 -48 -9 129 -130 0
8 -48 -9 -129 130 0
8 -48 -9 -129 -130 0
-8 48 -9 131 132 0
-8 48 -9 131 -132 0
-8 48 -9 -131 132 0
-8 48 -9 -131 -132 0
9 49 10 133 134 0
9 49 10 133 -134 0
9 49 10 -133 134 0
9 49 10 -133 -134 0
-9 -49 10 135 136 0
-9 -49 10 135 -136 0
-9 -49 10 -135 136 0
-9 -49 10 -135 -136 0
9 -49 -10 137 138 0
9 -49 -10 137 -138 0
9 -49 -10 -137 138 0
9 -49 -10 -137 -138 0
-9 49 -10 139 140 0
-9 49 -10 139 -140 0
-9 49 -10 -139 140 0
-9 49 -10 -139 -140 0
10 50 11 141 142 0
10 50 11 141 -142 0
10 50 11 -141 142 0
10 50 11 -141 -142 0
-10 -50 11 143 144 0
-10 -50 11 143 -144 0
-10 -50 11 -143 144 0
-10 -50 11 -143 -144 0
10 -50 -11 145 146 0
10 -50 -11 145 -146 0
10 -50 -11 -145 146 0
10 -50 -11 -145 -146 0
-10 50 -11 147 148 0
-10 50 -11 147 -148 0
-10 50 -11 -147 148 0
-10 50 -11 -147 -148 0
11 51 12 149 150 0
11 51 12 149 -150 0
11 51 12 -149 150 0
11 51 12 -149 -150 0
-11 -51 12 151 152 0
-11 -51 12 151 -152 0
-11 -51 12 -151 152 0
-11 -51 12 -151 -152 0
11 -51 -12 153 154 0
11 -51 -12 153 -154 0
11 -51 -12 -153 154 0
11 -51 -12 -153 -154 0
-11 51 -12 155 156 0
-11 51 -12 155 -156 0
-11 51 -12 -155 156 0
-11 51 -12 -155 -156 0
12 52 13 157 158 0
12 52 13 157 -158 0
12 52 13 -157 158 0
12 52 13 -157 -158 0
-12 -52 13 159 160 0
-12 -52 13 159 -160 0
-12 -52 13 -159 160 0
-12 -52 13 -159 -160 0
12 -52 -13 161 162 0
12 -52 -13 161 -162 0
12 -52 -13 -161 162 0
12 -52 -13 -161 -162 0
-12 52 -13 163 164 0
-12 52 -13 163 -164 0
-12 52 -13 -163 164 0
-12 52 -13 -163 -164 0
13 53 14 165 166 0
13 53 14 165 -166 0
13 53 14 -165 166 0
13 53 14 -165 -166 0
-13 -53 14 167 168 0
-13 -53 14 167 -168 0
-13 -53 14 -167 168 0
-13 -53 14 -167 -168 0
13 -53 -14 169 170 0
13 -53 -14 169 -170 0
13 -53 -14 -169 170 0
13 -53 -14 -169 -170 0
-13 53 -14 171 172 0
-13 53 -14 171 -172 0
-13 53 -14 -171 172 0
-13 53 -14 -171 -172 0
14 54 15 173 174 0
14 54 15 173 -174 0
14 54 15 -173 174 0
14 54 15 -173 -174 0
-14 -54 15 175 176 0
-14 -54 15 175 -176 0
-14 -54 15 -175 176 0
-14 -54 15 -175 -176 0
14 -54 -15 177 178 0
14 -54 -15 177 -178 0
14 -54 -15 -177 178 0
14 -54 -15 -177 -178 0
-14 54 -15 179 180 0
-14 54 -15 179 -180 0
-14 54 -15 -179 180 0
-14 54 -15 -179 -180 0
15 55 16 181 182 0
15 55 16 181 -182 0
15 55 16 -181 182 0
15 55 16 -181 -182 0
-15 -55 16 183 184 0
-15 -55 16 183 -184 0
-15 -55 16 -183 184 0
-15 -55 16 -183 -184 0
15 -55 -16 185 186 0
15 -55 -16 185 -186 0
15 -55 -16 -185 186 0
15 -55 -16 -185 -186 0
-15 55 -16 187 188 0
-15 55 -16 187 -188 0
-15 55 -16 -187 188 0
-15 55 -16 -187 -188 0
16 56 17 189 190 0
16 56 17 189 -190 0
16 56 17 -189 190 0
16 56 17 -189 -190 0
-16 -56 17 191 192 0
-16 -56 17 191 -192 0
-16 -56 17 -191 192 0
-16 -56 17 -191 -192 0
16 -56 -17 193 194 0
16 -56 -17 193 -194 0
16 -56 -17 -193 194 0
16 -56 -17 -193 -194 0
-16 56 -17 195 196 0
-16 56 -17 195 -196 0
-16 56 -17 -195 196 0
-16 56 -17 -195 -196 0
17 57 18 197 198 0
17 57 18 197 -198 0
17 57 18 -197 198 0
17 57 18 -197 -198 0
-17 -57 18 199 200 0
-17 -57 18 199 -200 0
-17 -57 18 -199 200 0
-17 -57 18 -199 -200 0
17 -57 -18 201 202 0
17 -57 -18 201 -202 0
17 -57 -18 -201 202 0
17 -57 -18 -201 -202 0
-17 57 -18 203 204 0
-17 57 -18 203 -204 0
-17 57 -18 -203 204 0
-17 57 -18 -203 -204 0
18 58 19 205 206 0
18 58 19 205 -206 0
18 58 19 -205 206 0
18 58 19 -205 -206 0
-18 -58 19 207 208 0
-18 -58 19 207 -208 0
-18 -58 19 -207 208 0
-18 -58 19 -207 -208 0
18 -58 -19 209 210 0
18 -58 -19 209 -210 0
18 -58 -19 -209 210 0
18 -58 -19 -209 -210 0
-18 58 -19 211 212 0
-18 58 -19 211 -212 0
-18 58 -19 -211 212 0
-18 58 -19 -211 -212 0
19 59 60 213 214 0
19 59 60 213 -214 0
19 59 60 -213 214 0
19 59 60 -213 -214 0
-19 -59 60 215 216 0
-19 -59 60 215 -216 0
-19 -59 60 -215 216 0
-19 -59 60 -215 -216 0
19 -59 -60 217 218 0
19 -59 -60 217 -218 0
19 -59 -60 -217 218 0
19 -59 -60 -217 -218 0
-19 59 -60 219 220 0
-19 59 -60 219 -220 0
-19 59 -60 -219 220 0
-19 59 -60 -219 -220 0
20 59 60 221 222 0
20 59 60 221 -222 0
20 59 60 -221 222 0
20 59 60 -221 -222 0
-20 -59 60 223 224 0
-20 -59 60 223 -224 0
-20 -59 60 -223 224 0
-20 -59 60 -223 -224 0
20 -59 -60 225 226 0
20 -59 -60 225 -226 0
20 -59 -60 -225 226 0
20 -59 -60 -225 -226 0
-20 59 -60 227 228 0
-20 59 -60 227 -228 0
-20 59 -60 -227 228 0
-20 59 -60 -227 -228 0
21 58 20 229 230 0
21 58 20 229 -230 0
21 58 20 -229 230 0
21 58 20 -229 -230 0
-21 -58 20 231 232 0
-21 -58 20 231 -232 0
-21 -58 20 -231 232 0
-21 -58 20 -231 -232 0
21 -58 -20 233 234 0
21 -58 -20 233 -234 0
21 -58 -20 -233 234 0
21 -58 -20 -233 -234 0
-21 58 -20 235 236 0
-21 58 -20 235 -236 0
-21 58 -20 -235 236 0
-21 58 -20 -235 -236 0
22 57 21 237 238 0
22 57 21 237 -238 0
22 57 21 -237 238 0
22 57 21 -237 -238 0
-22 -57 21 239 240 0
-22 -57 21 239 -240 0
-22 -57 21 -239 240 0
-22 -57 21 -239 -240 0
22 -57 -21 241 242 0
22 -57 -21 241 -242 0
22 -57 -21 -241 242 0
22 -57 -21 -241 -242 0
-22 57 -21 243 244 0
-22 57 -21 243 -244 0
-22 57 -21 -243 244 0
-22 57 -21 -243 -244 0
23 56 22 245 246 0
23 56 22 245 -246 0
23 56 22 -245 246 0
23 56 22 -245 -246 0
-23 -56 22 247 248 0
-23 -56 22 247 -248 0
-23 -56 22 -247 248 0
-23 -56 22 -247 -248 0
23 -56 -22 249 250 0
23 -56 -22 249 -250 0
23 -56 -22 -249 250 0
23 -56 -22 -249 -250 0
-23 56 -22 251 252 0
-23 56 -22 251 -252 0
-23 56 -22 -251 252 0
-23 56 -22 -251 -252 0
24 55 23 253 254 0
24 55 23 253 -254 0
24 55 23 -253 254 0
24 55 23 -253 -254 0
-24 -55 23 255 256 0
-24 -55 23 255 -256 0
-24 -55 23 -255 256 0
-24 -55 23 -255 -256 0
24 -55 -23 257 258 0
24 -55 -23 257 -258 0
24 -55 -23 -257 258 0
24 -55 -23 -257 -258 0
-24 55 -23 259 260 0
-24 55 -23 259 -260 0
-24 55 -23 -259 260 0
-24 55 -23 -259 -260 0
25 54 24 261 262 0
25 54 24 261 -262 0
25 54 24 -261 262 0
25 54 24 -261 -262 0
-25 -54 24 263 264 0
-25 -54 24 263 -264 0
-25 -54 24 -263 264 0
-25 -54 24 -263 -264 0
25 -54 -24 265 266 0
25 -54 -24 265 -266 0
25 -54 -24 -265 266 0
25 -54 -24 -265 -266 0
-25 54 -24 267 268 0
-25 54 -24 267 -268 0
-25 54 -24 -267 268 0
-25 54 -24 -267 -268 0
26 53 25 269 270 0
26 53 25 269 -270 0
26 53 25 -269 270 0
26 53 25 -269 -270 0
-26 -53 25 271 272 0
-26 -53 25 271 -272 0
-26 -53 25 -271 272 0
-26 -53 25 -271 -272 0
26 -53 -25 273 274 0
26 -53 -25 273 -274 0
26 -53 -25 -273 274 0
26 -53 -25 -273 -274 0
-26 53 -25 275 276 0
-26 53 -25 275 -276 0
-26 53 -25 -275 276 0
-26 53 -25 -275 -276 0
27 52 26 277 278 0
27 52 26 277 -278 0
27 52 26 -277 278 0
27 52 26 -277 -278 0
-27 -52 26 279 280 0
-27 -52 26 279 -280 0
-27 -52 26 -279 280 0
-27 -52 26 -279 -280 0
27 -52 -26 281 282 0
27 -52 -26 281 -282 0
27 -52 -26 -281 282 0
27 -52 -26 -281 -282 0
-27 52 -26 283 284 0
-27 52 -26 283 -284 0
-27 52 -26 -283 284 0
-27 52 -26 -283 -284 0
28 51 27 285 286 0
28 51 27 285 -286 0
28 51 27 -285 286 0
28 51 27 -285 -286 0
-28 -51 27 287 288 0
-28 -51 27 287 -288 0
-28 -51 27 -287 288 0
-28 -51 27 -287 -288 0
28 -51 -27 289 290 0
28 -51 -27 289 -290 0
28 -51 -27 -289 290 0
28 -51 -27 -289 -290 0
-28 51 -27 291 292 0
-28 51 -27 291 -292 0
-28 51 -27 -291 292 0
-28 51 -27 -291 -292 0
29 50 28 293 294 0
29 50 28 293 -294 0
29 50 28 -293 294 0
29 50 28 -293 -294 0
-29 -50 28 295 296 0
-29 -50 28 295 -296 0
-29 -50 28 -295 296 0
-29 -50 28 -295 -296 0
29 -50 -28 297 298 0
29 -50 -28 297 -298 0
29 -50 -28 -297 298 0
29 -50 -28 -297 -298 0
-29 50 -28 299 300 0
-29 50 -28 299 -300 0
-29 50 -28 -299 300 0
-29 50 -28 -299 -300 0
30 49 29 301 302 0
30 49 29 301 -302 0
30 49 29 -301 302 0
30 49 29 -301 -302 0
-30 -49 29 303 304 0
-30 -49 29 303 -304 0
-30 -49 29 -303 304 0
-30 -49 29 -303 -304 0
30 -49 -29 305 306 0
30 -49 -29 305 -306 0
30 -49 -29 -305 306 0
30 -49 -29 -305 -306 0
-30 49 -29 307 308 0
-30 49 -29 307 -308 0
-30 49 -29 -307 308 0
-30 49 -29 -307 -308 0
31 48 30 309 310 0
31 48 30 309 -310 0
31 48 30 -309 310 0
31 48 30 -309 -310 0
-31 -48 30 311 312 0
-31 -48 30 311 -312 0
-31 -48 30 -311 312 0
-31 -48 30 -311 -312 0
31 -48 -30 313 314 0
31 -48 -30 313 -314 0
31 -48 -30 -313 314 0
31 -48 -30 -313 -314 0
-31 48 -30 315 316 0
-31 48 -30 315 -316 0
-31 48 -30 -315 316 0
-31 48 -30 -315 -316 0
32 47 31 317 318 0
32 47 31 317 -318 0
32 47 31 -317 318 0
32 47 31 -317 -318 0
-32 -47 31 319 320 0
-32 -47 31 319 -320 0
-32 -47 31 -319 320 0
-32 -47 31 -319 -320 0
32 -47 -31 321 322 0
32 -47 -31 321 -322 0
32 -47 -31 -321 322 0
32 -47 -31 -321 -322 0
-32 47 -31 323 324 0
-32 47 -31 323 -324 0
-32 47 -31 -323 324 0
-32 47 -31 -323 -324 0
33 46 32 325 326 0
33 46 32 325 -326 0
33 46 32 -325 326 0
33 46 32 -325 -326 0
-33 -46 32 327 328 0
-33 -46 32 327 -328 0
-33 -46 32 -327 328 0
-33 -46 32 -327 -328 0
33 -46 -32 329 330 0
33 -46 -32 329 -330 0
33 -46 -32 -329 330 0
33 -46 -32 -329 -330 0
-33 46 -32 331 332 0
-33 46 -32 331 -332 0
-33 46 -32 -331 332 0
-33 46 -32 -331 -332 0
34 45 33 333 334 0
34 45 33 333 -334 0
34 45 33 -333 334 0
34 45 33 -333 -334 0
-34 -45 33 335 336 0
-34 -45 33 335 -336 0
-34 -45 33 -335 336 0
-34 -45 33 -335 -336 0
34 -45 -33 337 338 0
34 -45 -33 337 -338 0
34 -45 -33 -337 338 0
34 -45 -33 -337 -338 0
-34 45 -33 339 340 0
-34 45 -33 339 -340 0
-34 45 -33 -339 340 0
-34 45 -33 -339 -340 0
35 44 34 341 342 0
35 44 34 341 -342 0
35 44 34 -341 342 0
35 44 34 -341 -342 0
-35 -44 34 343 344 0
-35 -44 34 343 -344 0
-35 -44 34 -343 344 0
-35 -44 34 -343 -344 0
35 -44 -34 345 346 0
35 -44 -34 345 -346 0
35 -44 -34 -345 346 0
35 -44 -34 -345 -346 0
-35 44 -34 347 348 0
-35 44 -34 347 -348 0
-35 44 -34 -347 348 0
-35 44 -34 -347 -348 0
36 43 35 349 350 0
36 43 35 349 -350 0
36 43 35 -349 350 0
36 43 35 -349 -350 0
-36 -43 35 351 352 0
-36 -43 35 351 -352 0
-36 -43 35 -351 352 0
-36 -43 35 -351 -352 0
36 -43 -35 353 354 0
36 -43 -35 353 -354 0
36 -43 -35 -353 354 0
36 -43 -35 -353 -354 0
-36 43 -35 355 356 0
-36 43 -35 355 -356 0
-36 43 -35 -355 356 0
-36 43 -35 -355 -356 0
37 42 36 357 358 0
37 42 36 357 -358 0
37 42 36 -357 358 0
37 42 36 -357 -358 0
-37 -42 36 359 360 0
-37 -42 36 359 -360 0
-37 -42 36 -359 360 0
-37 -42 36 -359 -360 0
37 -42 -36 361 362 0
37 -42 -36 361 -362 0
37 -42 -36 -361 362 0
37 -42 -36 -361 -362 0
-37 42 -36 363 364 0
-37 42 -36 363 -364 0
-37 42 -36 -363 364 0
-37 42 -36 -363 -364 0
38 41 37 365 366 0
38 41 37 365 -366 0
38 41 37 -365 366 0
38 41 37 -365 -366 0
-38 -41 37 367 368 0
-38 -41 37 367 -368 0
-38 -41 37 -367 368 0
-38 -41 37 -367 -368 0
38 -41 -37 369 370 0
38 -41 -37 369 -370 0
38 -41 -37 -369 370 0
38 -41 -37 -369 -370 0
-38 41 -37 371 372 0
-38 41 -37 371 -372 0
-38 41 -37 -371 372 0
-38 41 -37 -371 -372 0
39 40 -38 373 374 0
39 40 -38 373 -374 0
39 40 -38 -373 374 0
39 40 -38 -373 -374 0
-39 -40 -38 375 376 0
-39 -40 -38 375 -376 0
-39 -40 -38 -375 376 0
-39 -40 -38 -375 -376 0
39 -40 38 377 378 0
39 -40 38 377 -378 0
39 -40 38 -377 378 0
39 -40 38 -377 -378 0
-39 40 38 379 380 0
-39 40 38 379 -380 0
-39 40 38 -379 380 0
-39 40 38 -379 -380 0
